# Objective value = 2.1880100000000011e+03
I_0_0 1301
I_0_1 1.6990000000000005e+03
I_0_2 1.4510000000000005e+03
I_0_3 1.9989999999999995e+03
I_1_0 91
I_1_1 0
I_1_2 91
I_1_3 0
I_2_0 110
I_2_1 55
I_2_2 1.0999999999999999e+02
I_2_3 5.4999999999999936e+01
I_3_0 44
I_3_1 9.3342423496889326e-13
I_3_2 44
I_3_3 0
I_4_0 43
I_4_1 9.5479180117763462e-15
I_4_2 4.2999999999999993e+01
I_4_3 0
I_5_0 51
I_5_1 0
I_5_2 51
I_5_3 0
I_6_0 102
I_6_1 102
I_6_2 5.0999999999999886e+01
I_6_3 5.0383294143601309e-13
I_7_0 26
I_7_1 0
I_7_2 26
I_7_3 0
I_8_0 69
I_8_1 -1.0036993783564631e-12
I_8_2 69
I_8_3 4.5963233219481481e-14
I_9_0 19
I_9_1 2.1559011606704150e-15
I_9_2 1.8999999999999996e+01
I_9_3 2.1559011606704150e-15
I_10_0 198
I_10_1 198
I_10_2 99.0000000000004
I_10_3 3.92039877178343e-13
q_1_0 0
q_1_1 182
q_1_2 0
q_2_0 0
q_2_1 1.1000000000000003e+02
q_2_2 -4.7219754916313066e-14
q_3_0 9.3342423496889326e-13
q_3_1 8.7999999999999062e+01
q_3_2 0
q_4_0 9.5479180117763462e-15
q_4_1 8.5999999999999986e+01
q_4_2 7.1054273576010019e-15
q_5_0 0
q_5_1 102
q_5_2 0
q_6_0 51
q_6_1 0
q_6_2 6.1751977915762912e-13
q_7_0 0
q_7_1 52
q_7_2 0
q_8_0 -1.0036993783564631e-12
q_8_1 1.3800000000000102e+02
q_8_2 4.5963233219481481e-14
q_9_0 2.1559011606704150e-15
q_9_1 3.7999999999999993e+01
q_9_2 5.7086148394709159e-15
q_10_0 99
q_10_1 5.0979364013494888e-14
q_10_2 0
y_0_0 1
y_0_1 1
y_0_2 0
y_1_0 0
y_1_1 1
y_1_2 0
y_2_0 0
y_2_1 1
y_2_2 -5.0082345092033669e-16
y_3_0 2.1214187158383939e-14
y_3_1 1
y_3_2 0
y_4_0 2.2204460492503131e-16
y_4_1 9.9999999999999989e-01
y_4_2 0
y_5_0 0
y_5_1 1
y_5_2 0
y_6_0 1
y_6_1 1.7220687780080083e-15
y_6_2 3.2763810124832273e-15
y_7_0 0
y_7_1 1
y_7_2 0
y_8_0 -1.4546367802267583e-14
y_8_1 1
y_8_2 6.6613381477509392e-16
y_9_0 1.1346848214054816e-16
y_9_1 9.9999999999999989e-01
y_9_2 1.1346848214054816e-16
y_10_0 1
y_10_1 1.0016469018406734e-15
y_10_2 0
x_0_1_0 0
x_0_1_1 0
x_0_1_2 0
x_0_2_0 0
x_0_2_1 0
x_0_2_2 0
x_0_3_0 0
x_0_3_1 0
x_0_3_2 0
x_0_4_0 0
x_0_4_1 0
x_0_4_2 0
x_0_5_0 0
x_0_5_1 0
x_0_5_2 0
x_0_6_0 9.9999999999998990e-01
x_0_6_1 0
x_0_6_2 0
x_0_7_0 0
x_0_7_1 0
x_0_7_2 0
x_0_8_0 0
x_0_8_1 1.0000000000000002e+00
x_0_8_2 0
x_0_9_0 0
x_0_9_1 9.9999999999999711e-01
x_0_9_2 0
x_0_10_0 1.0000000000000098e+00
x_0_10_1 2.0032938036813468e-15
x_0_10_2 0
x_1_2_0 0
x_1_2_1 8.8817841970012523e-16
x_1_2_2 0
x_1_3_0 0
x_1_3_1 0
x_1_3_2 0
x_1_4_0 0
x_1_4_1 0
x_1_4_2 1.1346848214054895e-16
x_1_5_0 0
x_1_5_1 0
x_1_5_2 0
x_1_6_0 0
x_1_6_1 0
x_1_6_2 0
x_1_7_0 0
x_1_7_1 1
x_1_7_2 0
x_1_8_0 0
x_1_8_1 9.9999999999999889e-01
x_1_8_2 -1.1346848214054895e-16
x_1_9_0 0
x_1_9_1 0
x_1_9_2 0
x_1_10_0 0
x_1_10_1 0
x_1_10_2 0
x_2_3_0 8.43769498715119e-15
x_2_3_1 1.0000000000000002e+00
x_2_3_2 0
x_2_4_0 2.2204460492503131e-16
x_2_4_1 9.9999999999999933e-01
x_2_4_2 -1.1346848214054895e-16
x_2_5_0 0
x_2_5_1 0
x_2_5_2 0
x_2_6_0 1.6875389974302379e-14
x_2_6_1 0
x_2_6_2 0
x_2_7_0 0
x_2_7_1 0
x_2_7_2 0
x_2_8_0 0
x_2_8_1 0
x_2_8_2 0
x_2_9_0 0
x_2_9_1 0
x_2_9_2 0
x_2_10_0 0
x_2_10_1 0
x_2_10_2 0
x_3_4_0 0
x_3_4_1 0
x_3_4_2 0
x_3_5_0 0
x_3_5_1 9.9999999999999911e-01
x_3_5_2 0
x_3_6_0 2.1658276368234e-14
x_3_6_1 0
x_3_6_2 0
x_3_7_0 0
x_3_7_1 0
x_3_7_2 0
x_3_8_0 0
x_3_8_1 0
x_3_8_2 0
x_3_9_0 1.0556046121982433e-14
x_3_9_1 2.2204460492503131e-16
x_3_9_2 0
x_3_10_0 0
x_3_10_1 0
x_3_10_2 0
x_4_5_0 0
x_4_5_1 0
x_4_5_2 0
x_4_6_0 0
x_4_6_1 0
x_4_6_2 0
x_4_7_0 4.4408920985006262e-16
x_4_7_1 9.9999999999999978e-01
x_4_7_2 0
x_4_8_0 0
x_4_8_1 0
x_4_8_2 0
x_4_9_0 0
x_4_9_1 0
x_4_9_2 0
x_4_10_0 0
x_4_10_1 0
x_4_10_2 0
x_5_6_0 0
x_5_6_1 2.1661579878580707e-15
x_5_6_2 0
x_5_7_0 0
x_5_7_1 0
x_5_7_2 0
x_5_8_0 0
x_5_8_1 0
x_5_8_2 0
x_5_9_0 0
x_5_9_1 1.0000000000000016e+00
x_5_9_2 0
x_5_10_0 0
x_5_10_1 0
x_5_10_2 0
x_6_7_0 0
x_6_7_1 0
x_6_7_2 0
x_6_8_0 -2.9092735604535166e-14
x_6_8_1 0
x_6_8_2 0
x_6_9_0 7.7960229691564090e-16
x_6_9_1 1.7220687780080083e-15
x_6_9_2 1.1346848214054816e-16
x_6_10_0 1
x_6_10_1 0
x_6_10_2 0
x_7_8_0 0
x_7_8_1 0
x_7_8_2 0
x_7_9_0 0
x_7_9_1 0
x_7_9_2 0
x_7_10_0 0
x_7_10_1 0
x_7_10_2 0
x_8_9_0 0
x_8_9_1 0
x_8_9_2 1.0016469018406734e-15
x_8_10_0 0
x_8_10_1 0
x_8_10_2 0
x_9_10_0 -9.9984884299918234e-15
x_9_10_1 0
x_9_10_2 0
